results/res_prop_muc/res_Cimatti_mathsat_cores/QF_UF/PEQ010_size7.smt.smt2.out

real	0m0.625s
user	0m0.545s
sys	0m0.044s
