results/res_prop_muc/res_Cimatti_mathsat_cores/QF_UF/PEQ010_size7.smt.smt2.res
unsat
( _c0
  _c1
  _c1100
  _c1101
  _c1102
  _c1103
  _c1104
  _c1105
  _c1106
  _c1107
  _c1108
  _c1109
  _c1110
  _c1111
  _c1112
  _c1113
  _c1114
  _c1115
  _c1116
  _c1117
  _c1119
  _c408
  _c415
  _c499
  _c500
  _c501
  _c502
  _c503
  _c504
  _c505
  _c884
  _c892
  _c893
  _c894
  _c895
  _c896
  _c897
  _c898
  _c899
  _c941
  _c942
  _c943
  _c944
  _c945
  _c946
  _c947
  _c948 )
